Route 1: 0 32 7 17 82 74 29 77 54 39 24 0
Route 2: 0 22 5 89 50 1 73 3 30 0
Route 3: 0 76 41 44 100 79 49 65 98 31 97 42 0
Route 4: 0 13 62 16 56 40 18 48 4 43 0
Route 5: 0 66 34 11 37 93 47 55 59 38 8 0
Route 6: 0 68 12 78 36 80 46 85 57 83 0
Route 7: 0 88 14 19 6 58 87 45 25 20 0
Route 8: 0 51 53 69 71 94 35 0
Route 9: 0 92 96 52 33 64 60 2 84 9 95 0
Route 10: 0 81 23 63 72 75 99 0
Route 11: 0 15 27 61 28 21 10 70 67 90 91 86 26 0
